
Gurobi 9.0.1 (mac64, Python) logging started Mon Feb  3 15:07:48 2020

Using license file /Users/huojiaxi/gurobi.lic
Set parameter LogFile to value gurobi.log
Academic license - for non-commercial use only
